GeneratedTests/Random_8/Random_8_11.tsp
NAME: Random_8_11
TYPE: TSP
DIMENSION: 8
EDGE_WEIGHT_TYPE: EUC_2D
NODE_COORD_SECTION
1 13.489853 10.164766
2 7.460831 15.79405
3 22.12136 8.969349
4 3.0359588 9.663496
5 13.364056 8.461834
6 7.112613 15.012245
7 12.190508 13.857619
8 17.319077 9.341191
EOF
