GeneratedTests/Random_8/Random_8_11.txt
NAME: Random_8_11
TYPE: TSP
DIMENSION: 8
EDGE_WEIGHT_TYPE: EUC_2D
NODE_COORD_SECTION
1 21.297256 0.7566533
2 2.7128048 8.72637
3 2.7478766 9.357591
4 21.604267 12.847822
5 12.513407 5.8724213
6 16.370537 21.920185
7 17.396626 3.9296994
8 11.392359 14.966459
EOF
